(declare-fun bvlambda_1_ () (_ BitVec 1))
(declare-fun bvlambda_2_ () (_ BitVec 1))
(declare-fun bvlambda_3_ () (_ BitVec 1))
(declare-fun bvlambda_4_ () (_ BitVec 3))
(declare-fun bvlambda_11_ () (_ BitVec 1))
(declare-fun bvlambda_12_ () (_ BitVec 3))
(declare-fun bvlambda_15_ () (_ BitVec 1))
(declare-fun bvlambda_16_ () (_ BitVec 15))
(declare-fun bvlambda_22_ () (_ BitVec 1))
(declare-fun bvlambda_23_ () (_ BitVec 12))
(declare-fun a73 () (Array (_ BitVec 1) (_ BitVec 13)))
(declare-fun a74 () (Array (_ BitVec 3) (_ BitVec 6)))
(assert
(let (($e1 (_ bv0 1)))
(let (($e6 (_ bv0 6)))
(let (($e7 (_ bv0 10)))
(let (($e9 (_ bv0 13)))
(let (($e11 (_ bv3942 12)))
(let (($e14 (_ bv7182 13)))
(let (($e18 (_ bv0 7)))
(let (($e32 (_ bv0 11)))
(let (($e78 (select a73 $e1)))
(let (($e102        a73                    ))
(let (($e103 (store $e102 $e1        $e14 )))
(let (($e123 (concat bvlambda_11_ bvlambda_12_)))
(let (($e124                                          $e123  ))
(let (($e125 ((_ extract 3 1) $e124)))
(let (($e128                           $e125              ))
(let (($e129 (select a74 $e128)))
(let (($e165 (   extract      $e124)))
(let (($e166              $e165 ))
(let (($e167 (store $e103        $e166  $e9)))
(let (($e213 (select $e102 (bvnot $e1))))
(let (($e251                $e6        ))
(let (($e252                    $e251       ))
(let (($e253 (   extract        $e252)))
(let (($e255 (concat        $e253  $e11)))
(let (($e256        $e255       ))
(let (($e257      (bvult $e213        $e256 )         ))
(let (($e258 (concat $e32        $e257 )))
(let (($e259      (bvult $e258        $e11 )         ))
(let (($e260        $e259       ))
(let (($e261 (concat $e7 $e129)))
(let (($e262 (concat bvlambda_15_ bvlambda_16_)))
(let (($e263      (bvult $e262 $e261)         ))
(let (($e264                      $e263 ))
(let (($e265 (concat $e18 bvlambda_1_)))
(let (($e266 (concat $e265 bvlambda_2_)))
(let (($e267 (concat $e266 bvlambda_3_)))
(let (($e268 (concat $e267 bvlambda_4_)))
(let (($e269 (concat bvlambda_22_ bvlambda_23_)))
(let (($e270      (bvult $e269 $e268)         ))
(let (($e271 (bvand $e270 $e264)))
(let (($e272               $e271                ))
(let (($e273              $e260 ))
(let (($e274 (bvand        $e273         $e272 )))
(let (($e275 (select $e167 (bvnot $e1))))
(let (($e276      (bvult $e275 $e78)         ))
             (bvand $e276 (bvnot $e274))
                                                                                                                                                                                                                                                                                                                                                                                                                                                                                                                                                                                                                                                                                         )))))))))))))))))))))) )))                                     )                                             )))                                   ))  )))                   ))                       )                 )             )   )  ) ) ))    ))
